s td 119 8 144
b 1 1 4 6
b 2 2 3 5
b 3 3 5 41
b 4 4 6 42
b 5 5 41 125
b 6 6 42 126
b 7 77 80 82
b 8 78 79 81
b 9 13 79 81
b 10 14 80 82
b 11 13 81 143
b 12 14 82 144
b 13 123 126 128
b 14 124 125 127
b 15 41 125 127
b 16 42 126 128
b 17 41 127 135
b 18 42 128 136
b 19 139 142 144
b 20 140 141 143
b 21 111 141 143
b 22 112 142 144
b 23 13 111 143
b 24 14 112 144
b 25 7 8 11 15 76 101 102 112
b 26 7 9 11 15 112
b 27 7 9 14 112
b 28 7 8 15 76 101 102 111 112
b 29 7 8 12 15 76 111
b 30 8 10 12 15 111
b 31 8 10 13 111
b 32 7 8 15 101 102 108 111 112
b 33 7 8 16 108
b 34 15 101 102 107 108 111 112
b 35 102 107 108 110 111 112
b 36 103 108 110 112
b 37 105 107 110 111
b 38 101 106 107 108 111 112
b 39 101 104 106 107 112
b 40 101 104 106 109
b 41 11 65 66 76 97 98 101 102
b 42 35 36 65 66 97 98 101 102
b 43 35 36 61 62 65 66 87 88
b 44 53 54 61 62 65 66 87 88
b 45 21 22 53 54 55 56 87 88
b 46 21 22 53 54 55 56 121 122
b 47 21 22 23 24 45 46 121 122
b 48 18 21 22 23 24 45 46 133
b 49 18 22 24 45 46 133 134
b 50 18 22 24 26 134
b 51 17 22 24 26
b 52 45 46 129 132 133 134
b 53 37 38 45 46 129 132 133
b 54 37 38 45 129 132 133 138
b 55 37 38 41 45 132 133 138
b 56 37 41 44 45 138
b 57 39 41 44 45
b 58 41 132 133 135 138
b 59 130 133 135 138
b 60 37 38 45 129 131 132 133
b 61 37 38 42 45 129 131 132
b 62 38 40 42 45 131 132
b 63 38 40 43 131 132
b 64 43 131 132 137
b 65 42 129 131 136
b 66 21 22 23 24 25 133
b 67 19 21 24 25
b 68 20 22 23 25
b 69 23 24 45 46 118 121 122
b 70 23 45 46 117 118 121 122
b 71 46 113 117 118 121 122
b 72 46 113 117 120 121
b 73 115 117 120 121
b 74 45 116 117 118 121 122
b 75 45 116 117 119 122
b 76 114 117 119 122
b 77 47 53 54 55 56 122
b 78 47 52 53 55 122
b 79 50 52 53 55
b 80 51 53 54 55 56 121
b 81 48 51 53 56
b 82 49 51 54 55
b 83 21 22 55 56 87 88 92
b 84 21 22 55 87 88 91 92
b 85 22 85 87 88 91 92
b 86 22 85 88 90 92
b 87 83 88 90 92
b 88 21 84 87 88 91 92
b 89 21 84 88 89 91
b 90 86 88 89 91
b 91 54 57 61 62 65 66
b 92 54 57 61 64 65
b 93 59 61 64 65
b 94 53 61 62 63 65 66
b 95 58 61 63 66
b 96 60 62 63 65
b 97 32 35 36 61 62 87 88
b 98 31 32 35 36 61 87 88
b 99 27 31 32 35 36 88
b 100 27 31 34 35 88
b 101 29 31 34 35
b 102 28 31 32 35 36 87
b 103 28 32 33 35 87
b 104 30 32 33 35
b 105 36 97 98 100 101 102
b 106 93 98 100 102
b 107 95 97 100 101
b 108 35 94 97 98 101 102
b 109 35 94 96 98 101
b 110 35 94 96 99
b 111 11 65 66 75 76 97 98
b 112 65 66 74 75 76 97 98
b 113 65 73 74 75 76 97 98
b 114 72 73 74 75 76 98
b 115 67 72 74 76
b 116 70 72 73 75
b 117 69 73 74 75 76 97
b 118 68 69 73 76 97
b 119 68 69 71 97
1 4
2 3
3 5
4 6
5 15
6 16
7 10
8 9
9 11
10 12
11 23
12 24
13 16
14 15
15 17
16 18
17 58
18 65
19 22
20 21
21 23
22 24
23 31
24 27
25 26
25 28
25 41
26 27
28 29
28 32
29 30
30 31
32 33
32 34
34 35
34 38
35 36
35 37
38 39
39 40
41 42
41 111
42 43
42 105
42 108
43 44
43 97
44 45
44 91
44 94
45 46
45 83
46 47
46 77
46 80
47 48
47 69
48 49
48 66
49 50
49 52
50 51
52 53
53 54
53 60
54 55
55 56
55 58
56 57
58 59
60 61
61 62
61 65
62 63
63 64
66 67
66 68
69 70
70 71
70 74
71 72
72 73
74 75
75 76
77 78
78 79
80 81
80 82
83 84
84 85
84 88
85 86
86 87
88 89
89 90
91 92
92 93
94 95
94 96
97 98
98 99
98 102
99 100
100 101
102 103
103 104
105 106
105 107
108 109
109 110
111 112
112 113
113 114
113 117
114 115
114 116
117 118
118 119
